
































































32 62 
6 105 
98 111 
76 102 
108 29 63 
78 4 82 
50 84 19 
10 112 
42 58 
113 67 
33 65 
107 23 
28 36 37 
49 69 80 
2 31 
47 66 
27 34 
89 26 30 
54 68 
20 53 39 
110 46 79 
56 114 9 
15 51 

35 5 
74 100 
59 44 
22 40 
57 7 1 
92 24 
43 52 
93 11 55 
77 0 
83 101 
73 17 104 
8 48 61 
75 86 
88 14 106 
71 16 94 
91 103 109 
70 25 
41 99 21 
72 97 
45 96 
18 3 
85 60 87 
81 38 13 
64 95 
90 12 

